CapLotSizing_PM/src/Instancias/TCHSLT/6i6p2m/NBB06.OUT
 CG ITER, OVMR, OVMRUB =           1   19679.3007812   19679.3007812
 CG ITER, OVMR, OVMRUB =           2   19679.3007812   19679.3007812
 CG ITER, OVMR, OVMRUB =           3   16395.2792969   19679.3007812
 CG ITER, OVMR, OVMRUB =           4   15710.8779297   17548.2851562
 CG ITER, OVMR, OVMRUB =           5   15620.5458984   17548.2851562
 CG ITER, OVMR, OVMRUB =           6   15576.6250000   17548.2851562
 CG ITER, OVMR, OVMRUB =           7   15565.1201172   17548.2851562
 CG ITER, OVMR, OVMRUB =           8   15555.1279297   17548.2851562
 CG ITER, OVMR, OVMRUB =           9   15555.1279297   17091.3046875
 CG ITER, OVMR, OVMRUB =          10   15555.1279297   17091.3046875
OVLB =   15555.1279297 OVLUB =   17091.3046875 TIME =       0.2500000
